p tw 2658 3972
1 2
1 265
1 266
3 4
3 266
3 267
5 6
5 364
7 8
7 365
9 10
9 268
9 269
11 12
11 269
11 270
13 14
13 366
15 16
15 367
17 18
17 271
17 272
19 20
19 272
19 273
21 22
21 368
23 24
23 369
25 26
25 370
27 28
27 371
29 30
29 274
29 275
31 32
31 275
31 276
33 34
33 372
35 36
35 373
37 38
37 277
37 278
39 40
39 278
39 279
41 42
41 374
43 44
43 375
45 46
45 280
45 281
47 48
47 281
47 282
49 50
49 283
49 284
51 52
51 284
51 285
53 54
53 376
55 56
55 377
57 58
57 286
57 287
59 60
59 287
59 288
61 62
61 378
63 64
63 379
65 66
65 289
65 290
67 68
67 290
67 291
69 70
69 380
71 72
71 381
73 74
73 382
75 76
75 383
77 78
77 292
77 293
79 80
79 293
79 294
81 82
81 384
83 84
83 385
85 86
85 295
85 296
87 88
87 296
87 297
89 90
89 386
91 92
91 387
93 94
93 298
93 299
95 96
95 299
95 300
97 98
97 301
97 302
99 100
99 302
99 303
101 102
101 388
103 104
103 389
105 106
105 304
105 305
107 108
107 305
107 306
109 110
109 390
111 112
111 391
113 114
113 307
113 308
115 116
115 308
115 309
117 118
117 392
119 120
119 393
121 122
121 394
123 124
123 395
125 126
125 310
125 311
127 128
127 311
127 312
129 130
129 396
131 132
131 397
133 134
133 313
133 314
135 136
135 314
135 315
137 138
137 398
139 140
139 399
141 142
141 316
141 317
143 144
143 317
143 318
145 146
145 319
145 320
147 148
147 320
147 321
149 150
149 400
151 152
151 401
153 154
153 322
153 323
155 156
155 323
155 324
157 158
157 402
159 160
159 403
161 162
161 325
161 326
163 164
163 326
163 327
165 166
165 404
167 168
167 405
169 170
169 406
171 172
171 407
173 174
173 328
173 329
175 176
175 329
175 330
177 178
177 408
179 180
179 409
181 182
181 331
181 332
183 184
183 332
183 333
185 186
185 410
187 188
187 411
189 190
189 334
189 335
191 192
191 335
191 336
193 194
193 337
193 338
195 196
195 338
195 339
197 198
197 412
199 200
199 413
201 202
201 340
201 341
203 204
203 341
203 342
205 206
205 414
207 208
207 415
209 210
209 343
209 344
211 212
211 344
211 345
213 214
213 416
215 216
215 417
217 218
217 418
219 220
219 419
221 222
221 346
221 347
223 224
223 347
223 348
225 226
225 420
227 228
227 421
229 230
229 349
229 350
231 232
231 350
231 351
233 234
233 422
235 236
235 423
237 238
237 352
237 353
239 240
239 353
239 354
241 242
241 355
241 356
243 244
243 356
243 357
245 246
245 424
247 248
247 425
249 250
249 358
249 359
251 252
251 359
251 360
253 254
253 426
255 256
255 427
257 258
257 361
257 362
259 260
259 362
259 363
261 262
261 428
263 264
263 429
265 266
265 520
266 267
267 521
268 269
268 522
269 270
270 523
271 272
271 524
272 273
273 525
274 275
274 445
274 446
275 276
276 526
277 278
277 475
277 476
278 279
279 527
280 281
280 505
280 506
281 282
282 528
283 284
283 431
283 432
284 285
285 529
286 287
286 461
286 462
287 288
288 530
289 290
289 491
289 492
290 291
291 531
292 293
292 532
293 294
294 454
294 455
295 296
295 533
296 297
297 484
297 485
298 299
298 534
299 300
300 514
300 515
301 302
301 535
302 303
303 440
303 441
304 305
304 536
305 306
306 470
306 471
307 308
307 537
308 309
309 500
309 501
310 311
310 448
310 449
311 312
312 538
313 314
313 478
313 479
314 315
315 539
316 317
316 508
316 509
317 318
318 540
319 320
319 434
319 435
320 321
321 541
322 323
322 464
322 465
323 324
324 542
325 326
325 494
325 495
326 327
327 543
328 329
328 544
329 330
330 457
330 458
331 332
331 545
332 333
333 487
333 488
334 335
334 546
335 336
336 517
336 518
337 338
337 547
338 339
339 443
339 444
340 341
340 548
341 342
342 473
342 474
343 344
343 549
344 345
345 503
345 504
346 347
346 451
346 452
347 348
348 550
349 350
349 481
349 482
350 351
351 551
352 353
352 511
352 512
353 354
354 552
355 356
355 437
355 438
356 357
357 553
358 359
358 467
358 468
359 360
360 554
361 362
361 497
361 498
362 363
363 555
364 557
364 558
365 830
365 831
366 560
366 561
367 833
367 834
368 563
368 564
369 836
369 837
370 430
370 431
371 839
371 840
372 460
372 461
373 842
373 843
374 490
374 491
375 845
375 846
376 446
376 447
377 717
377 718
378 476
378 477
379 747
379 748
380 506
380 507
381 777
381 778
382 856
382 857
383 439
383 440
384 581
384 582
385 469
385 470
386 584
386 585
387 499
387 500
388 587
388 588
389 455
389 456
390 590
390 591
391 485
391 486
392 593
392 594
393 515
393 516
394 433
394 434
395 875
395 876
396 463
396 464
397 878
397 879
398 493
398 494
399 881
399 882
400 449
400 450
401 720
401 721
402 479
402 480
403 750
403 751
404 509
404 510
405 780
405 781
406 892
406 893
407 442
407 443
408 611
408 612
409 472
409 473
410 614
410 615
411 502
411 503
412 617
412 618
413 458
413 459
414 620
414 621
415 488
415 489
416 623
416 624
417 518
417 519
418 436
418 437
419 911
419 912
420 466
420 467
421 914
421 915
422 496
422 497
423 917
423 918
424 452
424 453
425 920
425 921
426 482
426 483
427 923
427 924
428 512
428 513
429 926
429 927
430 431
430 643
431 432
432 648
433 434
433 664
434 435
435 669
436 437
436 685
437 438
438 690
439 440
439 651
440 441
441 586
441 587
442 443
442 672
443 444
444 616
444 617
445 446
445 644
446 447
447 572
447 573
448 449
448 665
449 450
450 602
450 603
451 452
451 686
452 453
453 632
453 633
454 455
454 580
454 581
455 456
456 659
457 458
457 610
457 611
458 459
459 680
460 461
460 566
460 567
461 462
462 649
463 464
463 596
463 597
464 465
465 670
466 467
466 626
466 627
467 468
468 691
469 470
469 653
470 471
471 589
471 590
472 473
472 674
473 474
474 619
474 620
475 476
475 645
476 477
477 575
477 576
478 479
478 666
479 480
480 605
480 606
481 482
481 687
482 483
483 635
483 636
484 485
484 583
484 584
485 486
486 661
487 488
487 613
487 614
488 489
489 682
490 491
490 569
490 570
491 492
492 650
493 494
493 599
493 600
494 495
495 671
496 497
496 629
496 630
497 498
498 692
499 500
499 655
500 501
501 592
501 593
502 503
502 676
503 504
504 622
504 623
505 506
505 646
506 507
507 578
507 579
508 509
508 667
509 510
510 608
510 609
511 512
511 688
512 513
513 638
513 639
514 515
514 657
515 516
516 663
517 518
517 678
518 519
519 684
520 640
521 556
521 557
522 641
523 559
523 560
524 642
525 562
525 563
526 565
526 566
527 568
527 569
528 647
529 571
529 572
530 574
530 575
531 577
531 578
532 652
533 654
534 656
535 658
536 660
537 662
538 595
538 596
539 598
539 599
540 668
541 601
541 602
542 604
542 605
543 607
543 608
544 673
545 675
546 677
547 679
548 681
549 683
550 625
550 626
551 628
551 629
552 689
553 631
553 632
554 634
554 635
555 637
555 638
556 557
556 783
557 558
558 708
558 709
559 560
559 784
560 561
561 738
561 739
562 563
562 785
563 564
564 768
564 769
565 566
565 786
566 567
567 724
567 725
568 569
568 787
569 570
570 754
570 755
571 572
571 702
571 703
572 573
573 789
574 575
574 732
574 733
575 576
576 791
577 578
577 762
577 763
578 579
579 793
580 581
580 718
580 719
581 582
582 794
583 584
583 748
583 749
584 585
585 795
586 587
586 796
587 588
588 711
588 712
589 590
589 798
590 591
591 741
591 742
592 593
592 800
593 594
594 771
594 772
595 596
595 802
596 597
597 727
597 728
598 599
598 803
599 600
600 757
600 758
601 602
601 705
601 706
602 603
603 805
604 605
604 735
604 736
605 606
606 807
607 608
607 765
607 766
608 609
609 809
610 611
610 721
610 722
611 612
612 810
613 614
613 751
613 752
614 615
615 811
616 617
616 812
617 618
618 714
618 715
619 620
619 814
620 621
621 744
621 745
622 623
622 816
623 624
624 774
624 775
625 626
625 818
626 627
627 730
627 731
628 629
628 819
629 630
630 760
630 761
631 632
631 821
632 633
633 822
634 635
634 824
635 636
636 825
637 638
637 827
638 639
639 828
640 693
640 694
641 723
641 724
642 753
642 754
643 694
643 695
644 709
644 710
645 739
645 740
646 769
646 770
647 1057
647 1058
648 788
649 790
650 792
651 703
651 704
652 991
652 992
653 733
653 734
654 1021
654 1022
655 763
655 764
656 1051
656 1052
657 778
657 779
658 696
658 697
659 797
660 726
660 727
661 799
662 756
662 757
663 801
664 697
664 698
665 712
665 713
666 742
666 743
667 772
667 773
668 1060
668 1061
669 804
670 806
671 808
672 706
672 707
673 994
673 995
674 736
674 737
675 1024
675 1025
676 766
676 767
677 1054
677 1055
678 781
678 782
679 699
679 700
680 813
681 729
681 730
682 815
683 759
683 760
684 817
685 700
685 701
686 715
686 716
687 745
687 746
688 775
688 776
689 1063
689 1064
690 820
691 823
692 826
693 694
693 928
694 695
695 838
695 839
696 697
696 945
697 698
698 874
698 875
699 700
699 962
700 701
701 910
701 911
702 703
702 939
703 704
704 857
704 858
705 706
705 956
706 707
707 893
707 894
708 709
708 829
708 830
709 710
710 934
711 712
711 865
711 866
712 713
713 951
714 715
714 901
714 902
715 716
716 968
717 718
717 848
717 849
718 719
719 942
720 721
720 884
720 885
721 722
722 959
723 724
723 930
724 725
725 841
725 842
726 727
726 947
727 728
728 877
728 878
729 730
729 964
730 731
731 913
731 914
732 733
732 940
733 734
734 860
734 861
735 736
735 957
736 737
737 896
737 897
738 739
738 832
738 833
739 740
740 936
741 742
741 868
741 869
742 743
743 953
744 745
744 904
744 905
745 746
746 970
747 748
747 851
747 852
748 749
749 943
750 751
750 887
750 888
751 752
752 960
753 754
753 932
754 755
755 844
755 845
756 757
756 949
757 758
758 880
758 881
759 760
759 966
760 761
761 916
761 917
762 763
762 941
763 764
764 863
764 864
765 766
765 958
766 767
767 899
767 900
768 769
768 835
768 836
769 770
770 938
771 772
771 871
771 872
772 773
773 955
774 775
774 907
774 908
775 776
776 972
777 778
777 854
777 855
778 779
779 944
780 781
780 890
780 891
781 782
782 961
783 929
784 931
785 933
786 935
787 937
788 1260
788 1261
789 847
789 848
790 1136
790 1137
791 850
791 851
792 1139
792 1140
793 853
793 854
794 859
794 860
795 862
795 863
796 946
797 866
797 867
798 948
799 869
799 870
800 950
801 872
801 873
802 952
803 954
804 1263
804 1264
805 883
805 884
806 1166
806 1167
807 886
807 887
808 1169
808 1170
809 889
809 890
810 895
810 896
811 898
811 899
812 963
813 902
813 903
814 965
815 905
815 906
816 967
817 908
817 909
818 969
819 971
820 1489
820 1490
821 973
822 919
822 920
823 1196
823 1197
824 974
825 922
825 923
826 1199
826 1200
827 975
828 925
828 926
829 830
829 1067
830 831
831 1068
832 833
832 1070
833 834
834 1071
835 836
835 1073
836 837
837 1074
838 839
838 1075
839 840
840 982
840 983
841 842
841 1077
842 843
843 1012
843 1013
844 845
844 1079
845 846
846 1042
846 1043
847 848
847 1081
848 849
849 998
849 999
850 851
850 1082
851 852
852 1028
852 1029
853 854
853 1083
854 855
855 1058
855 1059
856 857
856 976
856 977
857 858
858 1084
859 860
859 1006
859 1007
860 861
861 1086
862 863
862 1036
862 1037
863 864
864 1088
865 866
865 992
865 993
866 867
867 1090
868 869
868 1022
868 1023
869 870
870 1091
871 872
871 1052
871 1053
872 873
873 1092
874 875
874 1093
875 876
876 985
876 986
877 878
877 1095
878 879
879 1015
879 1016
880 881
880 1097
881 882
882 1045
882 1046
883 884
883 1099
884 885
885 1001
885 1002
886 887
886 1100
887 888
888 1031
888 1032
889 890
889 1101
890 891
891 1061
891 1062
892 893
892 979
892 980
893 894
894 1102
895 896
895 1009
895 1010
896 897
897 1104
898 899
898 1039
898 1040
899 900
900 1106
901 902
901 995
901 996
902 903
903 1108
904 905
904 1025
904 1026
905 906
906 1109
907 908
907 1055
907 1056
908 909
909 1110
910 911
910 1111
911 912
912 988
912 989
913 914
913 1113
914 915
915 1018
915 1019
916 917
916 1115
917 918
918 1048
918 1049
919 920
919 1117
920 921
921 1004
921 1005
922 923
922 1118
923 924
924 1034
924 1035
925 926
925 1119
926 927
927 1064
927 1065
928 1066
929 1266
929 1267
930 1069
931 1296
931 1297
932 1072
933 1326
933 1327
934 1076
935 997
935 998
936 1078
937 1027
937 1028
938 1080
939 983
939 984
940 1013
940 1014
941 1043
941 1044
942 1085
943 1087
944 1089
945 977
945 978
946 1269
946 1270
947 1007
947 1008
948 1299
948 1300
949 1037
949 1038
950 1329
950 1330
951 1094
952 1000
952 1001
953 1096
954 1030
954 1031
955 1098
956 986
956 987
957 1016
957 1017
958 1046
958 1047
959 1103
960 1105
961 1107
962 980
962 981
963 1272
963 1273
964 1010
964 1011
965 1302
965 1303
966 1040
966 1041
967 1332
967 1333
968 1112
969 1003
969 1004
970 1114
971 1033
971 1034
972 1116
973 989
973 990
974 1019
974 1020
975 1049
975 1050
976 977
976 1218
977 978
978 1221
979 980
979 1239
980 981
981 1242
982 983
982 1126
982 1127
983 984
984 1211
985 986
985 1156
985 1157
986 987
987 1232
988 989
988 1186
988 1187
989 990
990 1253
991 992
991 1142
991 1143
992 993
993 1222
994 995
994 1172
994 1173
995 996
996 1243
997 998
997 1206
998 999
999 1135
999 1136
1000 1001
1000 1227
1001 1002
1002 1165
1002 1166
1003 1004
1003 1248
1004 1005
1005 1195
1005 1196
1006 1007
1006 1219
1007 1008
1008 1151
1008 1152
1009 1010
1009 1240
1010 1011
1011 1181
1011 1182
1012 1013
1012 1129
1012 1130
1013 1014
1014 1213
1015 1016
1015 1159
1015 1160
1016 1017
1017 1234
1018 1019
1018 1189
1018 1190
1019 1020
1020 1255
1021 1022
1021 1145
1021 1146
1022 1023
1023 1223
1024 1025
1024 1175
1024 1176
1025 1026
1026 1244
1027 1028
1027 1208
1028 1029
1029 1138
1029 1139
1030 1031
1030 1229
1031 1032
1032 1168
1032 1169
1033 1034
1033 1250
1034 1035
1035 1198
1035 1199
1036 1037
1036 1220
1037 1038
1038 1154
1038 1155
1039 1040
1039 1241
1040 1041
1041 1184
1041 1185
1042 1043
1042 1132
1042 1133
1043 1044
1044 1215
1045 1046
1045 1162
1045 1163
1046 1047
1047 1236
1048 1049
1048 1192
1048 1193
1049 1050
1050 1257
1051 1052
1051 1148
1051 1149
1052 1053
1053 1224
1054 1055
1054 1178
1054 1179
1055 1056
1056 1245
1057 1058
1057 1210
1058 1059
1059 1217
1060 1061
1060 1231
1061 1062
1062 1238
1063 1064
1063 1252
1064 1065
1065 1259
1066 1399
1066 1400
1067 1201
1068 1120
1068 1121
1069 1121
1069 1122
1070 1202
1071 1123
1071 1124
1072 1124
1072 1125
1073 1203
1074 1204
1075 1205
1076 1127
1076 1128
1077 1207
1078 1130
1078 1131
1079 1209
1080 1133
1080 1134
1081 1212
1082 1214
1083 1216
1084 1141
1084 1142
1085 1427
1085 1428
1086 1144
1086 1145
1087 1430
1087 1431
1088 1147
1088 1148
1089 1433
1089 1434
1090 1150
1090 1151
1091 1153
1091 1154
1092 1225
1093 1226
1094 1157
1094 1158
1095 1228
1096 1160
1096 1161
1097 1230
1098 1163
1098 1164
1099 1233
1100 1235
1101 1237
1102 1171
1102 1172
1103 1463
1103 1464
1104 1174
1104 1175
1105 1466
1105 1467
1106 1177
1106 1178
1107 1469
1107 1470
1108 1180
1108 1181
1109 1183
1109 1184
1110 1246
1111 1247
1112 1187
1112 1188
1113 1249
1114 1190
1114 1191
1115 1251
1116 1193
1116 1194
1117 1254
1118 1256
1119 1258
1120 1121
1120 1281
1120 1282
1121 1122
1122 1350
1123 1124
1123 1311
1123 1312
1124 1125
1125 1351
1126 1127
1126 1267
1126 1268
1127 1128
1128 1352
1129 1130
1129 1297
1129 1298
1130 1131
1131 1353
1132 1133
1132 1327
1132 1328
1133 1134
1134 1354
1135 1136
1135 1356
1136 1137
1137 1290
1137 1291
1138 1139
1138 1358
1139 1140
1140 1320
1140 1321
1141 1142
1141 1361
1142 1143
1143 1276
1143 1277
1144 1145
1144 1362
1145 1146
1146 1306
1146 1307
1147 1148
1147 1363
1148 1149
1149 1336
1149 1337
1150 1151
1150 1284
1150 1285
1151 1152
1152 1366
1153 1154
1153 1314
1153 1315
1154 1155
1155 1368
1156 1157
1156 1270
1156 1271
1157 1158
1158 1370
1159 1160
1159 1300
1159 1301
1160 1161
1161 1371
1162 1163
1162 1330
1162 1331
1163 1164
1164 1372
1165 1166
1165 1374
1166 1167
1167 1293
1167 1294
1168 1169
1168 1376
1169 1170
1170 1323
1170 1324
1171 1172
1171 1379
1172 1173
1173 1279
1173 1280
1174 1175
1174 1380
1175 1176
1176 1309
1176 1310
1177 1178
1177 1381
1178 1179
1179 1339
1179 1340
1180 1181
1180 1287
1180 1288
1181 1182
1182 1384
1183 1184
1183 1317
1183 1318
1184 1185
1185 1386
1186 1187
1186 1273
1186 1274
1187 1188
1188 1388
1189 1190
1189 1303
1189 1304
1190 1191
1191 1389
1192 1193
1192 1333
1192 1334
1193 1194
1194 1390
1195 1196
1195 1392
1196 1197
1197 1393
1198 1199
1198 1395
1199 1200
1200 1396
1201 1685
1201 1686
1202 1688
1202 1689
1203 1691
1203 1692
1204 1341
1204 1342
1205 1540
1205 1541
1206 1282
1206 1283
1207 1570
1207 1571
1208 1312
1208 1313
1209 1600
1209 1601
1210 1342
1210 1343
1211 1355
1212 1275
1212 1276
1213 1357
1214 1305
1214 1306
1215 1359
1216 1335
1216 1336
1217 1360
1218 1261
1218 1262
1219 1291
1219 1292
1220 1321
1220 1322
1221 1364
1222 1365
1223 1367
1224 1369
1225 1344
1225 1345
1226 1543
1226 1544
1227 1285
1227 1286
1228 1573
1228 1574
1229 1315
1229 1316
1230 1603
1230 1604
1231 1345
1231 1346
1232 1373
1233 1278
1233 1279
1234 1375
1235 1308
1235 1309
1236 1377
1237 1338
1237 1339
1238 1378
1239 1264
1239 1265
1240 1294
1240 1295
1241 1324
1241 1325
1242 1382
1243 1383
1244 1385
1245 1387
1246 1347
1246 1348
1247 1546
1247 1547
1248 1288
1248 1289
1249 1576
1249 1577
1250 1318
1250 1319
1251 1606
1251 1607
1252 1348
1252 1349
1253 1391
1254 1562
1254 1563
1255 1394
1256 1592
1256 1593
1257 1397
1258 1622
1258 1623
1259 1398
1260 1261
1260 1417
1260 1418
1261 1262
1262 1509
1263 1264
1263 1453
1263 1454
1264 1265
1265 1526
1266 1267
1266 1400
1266 1401
1267 1268
1268 1501
1269 1270
1269 1436
1269 1437
1270 1271
1271 1518
1272 1273
1272 1472
1272 1473
1273 1274
1274 1535
1275 1276
1275 1504
1276 1277
1277 1426
1277 1427
1278 1279
1278 1521
1279 1280
1280 1462
1280 1463
1281 1282
1281 1498
1282 1283
1283 1409
1283 1410
1284 1285
1284 1515
1285 1286
1286 1445
1286 1446
1287 1288
1287 1532
1288 1289
1289 1481
1289 1482
1290 1291
1290 1420
1290 1421
1291 1292
1292 1511
1293 1294
1293 1456
1293 1457
1294 1295
1295 1528
1296 1297
1296 1403
1296 1404
1297 1298
1298 1502
1299 1300
1299 1439
1299 1440
1300 1301
1301 1519
1302 1303
1302 1475
1302 1476
1303 1304
1304 1536
1305 1306
1305 1506
1306 1307
1307 1429
1307 1430
1308 1309
1308 1523
1309 1310
1310 1465
1310 1466
1311 1312
1311 1499
1312 1313
1313 1412
1313 1413
1314 1315
1314 1516
1315 1316
1316 1448
1316 1449
1317 1318
1317 1533
1318 1319
1319 1484
1319 1485
1320 1321
1320 1423
1320 1424
1321 1322
1322 1513
1323 1324
1323 1459
1323 1460
1324 1325
1325 1530
1326 1327
1326 1406
1326 1407
1327 1328
1328 1503
1329 1330
1329 1442
1329 1443
1330 1331
1331 1520
1332 1333
1332 1478
1332 1479
1333 1334
1334 1537
1335 1336
1335 1508
1336 1337
1337 1432
1337 1433
1338 1339
1338 1525
1339 1340
1340 1468
1340 1469
1341 1342
1341 1500
1342 1343
1343 1415
1343 1416
1344 1345
1344 1517
1345 1346
1346 1451
1346 1452
1347 1348
1347 1534
1348 1349
1349 1487
1349 1488
1350 1402
1350 1403
1351 1405
1351 1406
1352 1408
1352 1409
1353 1411
1353 1412
1354 1414
1354 1415
1355 1418
1355 1419
1356 1505
1357 1421
1357 1422
1358 1507
1359 1424
1359 1425
1360 1905
1360 1906
1361 1510
1362 1512
1363 1514
1364 1435
1364 1436
1365 1715
1365 1716
1366 1438
1366 1439
1367 1718
1367 1719
1368 1441
1368 1442
1369 1721
1369 1722
1370 1444
1370 1445
1371 1447
1371 1448
1372 1450
1372 1451
1373 1454
1373 1455
1374 1522
1375 1457
1375 1458
1376 1524
1377 1460
1377 1461
1378 1908
1378 1909
1379 1527
1380 1529
1381 1531
1382 1471
1382 1472
1383 1745
1383 1746
1384 1474
1384 1475
1385 1748
1385 1749
1386 1477
1386 1478
1387 1751
1387 1752
1388 1480
1388 1481
1389 1483
1389 1484
1390 1486
1390 1487
1391 1490
1391 1491
1392 1538
1393 1492
1393 1493
1394 1493
1394 1494
1395 1539
1396 1495
1396 1496
1397 1496
1397 1497
1398 2054
1398 2055
1399 1400
1399 1630
1400 1401
1401 1631
1402 1403
1402 1633
1403 1404
1404 1634
1405 1406
1405 1636
1406 1407
1407 1637
1408 1409
1408 1555
1408 1556
1409 1410
1410 1640
1411 1412
1411 1585
1411 1586
1412 1413
1413 1642
1414 1415
1414 1615
1414 1616
1415 1416
1416 1644
1417 1418
1417 1541
1417 1542
1418 1419
1419 1645
1420 1421
1420 1571
1420 1572
1421 1422
1422 1646
1423 1424
1423 1601
1423 1602
1424 1425
1425 1647
1426 1427
1426 1649
1427 1428
1428 1564
1428 1565
1429 1430
1429 1651
1430 1431
1431 1594
1431 1595
1432 1433
1432 1653
1433 1434
1434 1624
1434 1625
1435 1436
1435 1654
1436 1437
1437 1550
1437 1551
1438 1439
1438 1655
1439 1440
1440 1580
1440 1581
1441 1442
1441 1656
1442 1443
1443 1610
1443 1611
1444 1445
1444 1558
1444 1559
1445 1446
1446 1658
1447 1448
1447 1588
1447 1589
1448 1449
1449 1660
1450 1451
1450 1618
1450 1619
1451 1452
1452 1662
1453 1454
1453 1544
1453 1545
1454 1455
1455 1663
1456 1457
1456 1574
1456 1575
1457 1458
1458 1664
1459 1460
1459 1604
1459 1605
1460 1461
1461 1665
1462 1463
1462 1667
1463 1464
1464 1567
1464 1568
1465 1466
1465 1669
1466 1467
1467 1597
1467 1598
1468 1469
1468 1671
1469 1470
1470 1627
1470 1628
1471 1472
1471 1672
1472 1473
1473 1553
1473 1554
1474 1475
1474 1673
1475 1476
1476 1583
1476 1584
1477 1478
1477 1674
1478 1479
1479 1613
1479 1614
1480 1481
1480 1561
1480 1562
1481 1482
1482 1676
1483 1484
1483 1591
1483 1592
1484 1485
1485 1678
1486 1487
1486 1621
1486 1622
1487 1488
1488 1680
1489 1490
1489 1547
1489 1548
1490 1491
1491 1681
1492 1493
1492 1577
1492 1578
1493 1494
1494 1682
1495 1496
1495 1607
1495 1608
1496 1497
1497 1683
1498 1632
1499 1635
1500 1638
1501 1639
1502 1641
1503 1643
1504 1556
1504 1557
1505 1845
1505 1846
1506 1586
1506 1587
1507 1875
1507 1876
1508 1616
1508 1617
1509 1648
1510 1549
1510 1550
1511 1650
1512 1579
1512 1580
1513 1652
1514 1609
1514 1610
1515 1565
1515 1566
1516 1595
1516 1596
1517 1625
1517 1626
1518 1657
1519 1659
1520 1661
1521 1559
1521 1560
1522 1848
1522 1849
1523 1589
1523 1590
1524 1878
1524 1879
1525 1619
1525 1620
1526 1666
1527 1552
1527 1553
1528 1668
1529 1582
1529 1583
1530 1670
1531 1612
1531 1613
1532 1568
1532 1569
1533 1598
1533 1599
1534 1628
1534 1629
1535 1675
1536 1677
1537 1679
1538 2048
1538 2049
1539 2051
1539 2052
1540 1541
1540 1771
1541 1542
1542 1776
1543 1544
1543 1792
1544 1545
1545 1797
1546 1547
1546 1813
1547 1548
1548 1818
1549 1550
1549 1779
1550 1551
1551 1714
1551 1715
1552 1553
1552 1800
1553 1554
1554 1744
1554 1745
1555 1556
1555 1772
1556 1557
1557 1700
1557 1701
1558 1559
1558 1793
1559 1560
1560 1730
1560 1731
1561 1562
1561 1814
1562 1563
1563 1760
1563 1761
1564 1565
1564 1708
1564 1709
1565 1566
1566 1787
1567 1568
1567 1738
1567 1739
1568 1569
1569 1808
1570 1571
1570 1694
1570 1695
1571 1572
1572 1777
1573 1574
1573 1724
1573 1725
1574 1575
1575 1798
1576 1577
1576 1754
1576 1755
1577 1578
1578 1819
1579 1580
1579 1781
1580 1581
1581 1717
1581 1718
1582 1583
1582 1802
1583 1584
1584 1747
1584 1748
1585 1586
1585 1773
1586 1587
1587 1703
1587 1704
1588 1589
1588 1794
1589 1590
1590 1733
1590 1734
1591 1592
1591 1815
1592 1593
1593 1763
1593 1764
1594 1595
1594 1711
1594 1712
1595 1596
1596 1789
1597 1598
1597 1741
1597 1742
1598 1599
1599 1810
1600 1601
1600 1697
1600 1698
1601 1602
1602 1778
1603 1604
1603 1727
1603 1728
1604 1605
1605 1799
1606 1607
1606 1757
1606 1758
1607 1608
1608 1820
1609 1610
1609 1783
1610 1611
1611 1720
1611 1721
1612 1613
1612 1804
1613 1614
1614 1750
1614 1751
1615 1616
1615 1774
1616 1617
1617 1706
1617 1707
1618 1619
1618 1795
1619 1620
1620 1736
1620 1737
1621 1622
1621 1816
1622 1623
1623 1766
1623 1767
1624 1625
1624 1785
1625 1626
1626 1791
1627 1628
1627 1806
1628 1629
1629 1812
1630 1768
1631 1684
1631 1685
1632 1958
1632 1959
1633 1769
1634 1687
1634 1688
1635 1961
1635 1962
1636 1770
1637 1690
1637 1691
1638 1964
1638 1965
1639 1967
1639 1968
1640 1693
1640 1694
1641 1970
1641 1971
1642 1696
1642 1697
1643 1973
1643 1974
1644 1775
1645 1699
1645 1700
1646 1702
1646 1703
1647 1705
1647 1706
1648 1984
1648 1985
1649 1780
1650 1709
1650 1710
1651 1782
1652 1712
1652 1713
1653 1784
1654 1786
1655 1788
1656 1790
1657 2003
1657 2004
1658 1723
1658 1724
1659 2006
1659 2007
1660 1726
1660 1727
1661 2009
1661 2010
1662 1796
1663 1729
1663 1730
1664 1732
1664 1733
1665 1735
1665 1736
1666 2020
1666 2021
1667 1801
1668 1739
1668 1740
1669 1803
1670 1742
1670 1743
1671 1805
1672 1807
1673 1809
1674 1811
1675 2039
1675 2040
1676 1753
1676 1754
1677 2042
1677 2043
1678 1756
1678 1757
1679 2045
1679 2046
1680 1817
1681 1759
1681 1760
1682 1762
1682 1763
1683 1765
1683 1766
1684 1685
1684 1911
1685 1686
1686 1836
1686 1837
1687 1688
1687 1912
1688 1689
1689 1866
1689 1867
1690 1691
1690 1913
1691 1692
1692 1896
1692 1897
1693 1694
1693 1914
1694 1695
1695 1852
1695 1853
1696 1697
1696 1915
1697 1698
1698 1882
1698 1883
1699 1700
1699 1830
1699 1831
1700 1701
1701 1917
1702 1703
1702 1860
1702 1861
1703 1704
1704 1919
1705 1706
1705 1890
1705 1891
1706 1707
1707 1921
1708 1709
1708 1846
1708 1847
1709 1710
1710 1922
1711 1712
1711 1876
1711 1877
1712 1713
1713 1923
1714 1715
1714 1924
1715 1716
1716 1839
1716 1840
1717 1718
1717 1926
1718 1719
1719 1869
1719 1870
1720 1721
1720 1928
1721 1722
1722 1899
1722 1900
1723 1724
1723 1930
1724 1725
1725 1855
1725 1856
1726 1727
1726 1931
1727 1728
1728 1885
1728 1886
1729 1730
1729 1833
1729 1834
1730 1731
1731 1933
1732 1733
1732 1863
1732 1864
1733 1734
1734 1935
1735 1736
1735 1893
1735 1894
1736 1737
1737 1937
1738 1739
1738 1849
1738 1850
1739 1740
1740 1938
1741 1742
1741 1879
1741 1880
1742 1743
1743 1939
1744 1745
1744 1940
1745 1746
1746 1842
1746 1843
1747 1748
1747 1942
1748 1749
1749 1872
1749 1873
1750 1751
1750 1944
1751 1752
1752 1902
1752 1903
1753 1754
1753 1946
1754 1755
1755 1858
1755 1859
1756 1757
1756 1947
1757 1758
1758 1888
1758 1889
1759 1760
1759 1949
1760 1761
1761 1950
1762 1763
1762 1952
1763 1764
1764 1953
1765 1766
1765 1955
1766 1767
1767 1956
1768 1821
1768 1822
1769 1851
1769 1852
1770 1881
1770 1882
1771 1822
1771 1823
1772 1837
1772 1838
1773 1867
1773 1868
1774 1897
1774 1898
1775 2185
1775 2186
1776 1916
1777 1918
1778 1920
1779 1831
1779 1832
1780 2119
1780 2120
1781 1861
1781 1862
1782 2149
1782 2150
1783 1891
1783 1892
1784 2179
1784 2180
1785 1906
1785 1907
1786 1824
1786 1825
1787 1925
1788 1854
1788 1855
1789 1927
1790 1884
1790 1885
1791 1929
1792 1825
1792 1826
1793 1840
1793 1841
1794 1870
1794 1871
1795 1900
1795 1901
1796 2188
1796 2189
1797 1932
1798 1934
1799 1936
1800 1834
1800 1835
1801 2122
1801 2123
1802 1864
1802 1865
1803 2152
1803 2153
1804 1894
1804 1895
1805 2182
1805 2183
1806 1909
1806 1910
1807 1827
1807 1828
1808 1941
1809 1857
1809 1858
1810 1943
1811 1887
1811 1888
1812 1945
1813 1828
1813 1829
1814 1843
1814 1844
1815 1873
1815 1874
1816 1903
1816 1904
1817 2191
1817 2192
1818 1948
1819 1951
1820 1954
1821 1822
1821 2056
1822 1823
1823 1966
1823 1967
1824 1825
1824 2073
1825 1826
1826 2002
1826 2003
1827 1828
1827 2090
1828 1829
1829 2038
1829 2039
1830 1831
1830 2067
1831 1832
1832 1985
1832 1986
1833 1834
1833 2084
1834 1835
1835 2021
1835 2022
1836 1837
1836 1957
1836 1958
1837 1838
1838 2062
1839 1840
1839 1993
1839 1994
1840 1841
1841 2079
1842 1843
1842 2029
1842 2030
1843 1844
1844 2096
1845 1846
1845 1976
1845 1977
1846 1847
1847 2070
1848 1849
1848 2012
1848 2013
1849 1850
1850 2087
1851 1852
1851 2058
1852 1853
1853 1969
1853 1970
1854 1855
1854 2075
1855 1856
1856 2005
1856 2006
1857 1858
1857 2092
1858 1859
1859 2041
1859 2042
1860 1861
1860 2068
1861 1862
1862 1988
1862 1989
1863 1864
1863 2085
1864 1865
1865 2024
1865 2025
1866 1867
1866 1960
1866 1961
1867 1868
1868 2064
1869 1870
1869 1996
1869 1997
1870 1871
1871 2081
1872 1873
1872 2032
1872 2033
1873 1874
1874 2098
1875 1876
1875 1979
1875 1980
1876 1877
1877 2071
1878 1879
1878 2015
1878 2016
1879 1880
1880 2088
1881 1882
1881 2060
1882 1883
1883 1972
1883 1973
1884 1885
1884 2077
1885 1886
1886 2008
1886 2009
1887 1888
1887 2094
1888 1889
1889 2044
1889 2045
1890 1891
1890 2069
1891 1892
1892 1991
1892 1992
1893 1894
1893 2086
1894 1895
1895 2027
1895 2028
1896 1897
1896 1963
1896 1964
1897 1898
1898 2066
1899 1900
1899 1999
1899 2000
1900 1901
1901 2083
1902 1903
1902 2035
1902 2036
1903 1904
1904 2100
1905 1906
1905 1982
1905 1983
1906 1907
1907 2072
1908 1909
1908 2018
1908 2019
1909 1910
1910 2089
1911 2057
1912 2059
1913 2061
1914 2063
1915 2065
1916 2388
1916 2389
1917 1975
1917 1976
1918 2264
1918 2265
1919 1978
1919 1979
1920 2267
1920 2268
1921 1981
1921 1982
1922 1987
1922 1988
1923 1990
1923 1991
1924 2074
1925 1994
1925 1995
1926 2076
1927 1997
1927 1998
1928 2078
1929 2000
1929 2001
1930 2080
1931 2082
1932 2391
1932 2392
1933 2011
1933 2012
1934 2294
1934 2295
1935 2014
1935 2015
1936 2297
1936 2298
1937 2017
1937 2018
1938 2023
1938 2024
1939 2026
1939 2027
1940 2091
1941 2030
1941 2031
1942 2093
1943 2033
1943 2034
1944 2095
1945 2036
1945 2037
1946 2097
1947 2099
1948 2647
1949 2101
1950 2047
1950 2048
1951 2324
1951 2325
1952 2102
1953 2050
1953 2051
1954 2327
1954 2328
1955 2103
1956 2053
1956 2054
1957 1958
1957 2195
1958 1959
1959 2196
1960 1961
1960 2198
1961 1962
1962 2199
1963 1964
1963 2201
1964 1965
1965 2202
1966 1967
1966 2203
1967 1968
1968 2110
1968 2111
1969 1970
1969 2205
1970 1971
1971 2140
1971 2141
1972 1973
1972 2207
1973 1974
1974 2170
1974 2171
1975 1976
1975 2209
1976 1977
1977 2126
1977 2127
1978 1979
1978 2210
1979 1980
1980 2156
1980 2157
1981 1982
1981 2211
1982 1983
1983 2186
1983 2187
1984 1985
1984 2104
1984 2105
1985 1986
1986 2212
1987 1988
1987 2134
1987 2135
1988 1989
1989 2214
1990 1991
1990 2164
1990 2165
1991 1992
1992 2216
1993 1994
1993 2120
1993 2121
1994 1995
1995 2218
1996 1997
1996 2150
1996 2151
1997 1998
1998 2219
1999 2000
1999 2180
1999 2181
2000 2001
2001 2220
2002 2003
2002 2221
2003 2004
2004 2113
2004 2114
2005 2006
2005 2223
2006 2007
2007 2143
2007 2144
2008 2009
2008 2225
2009 2010
2010 2173
2010 2174
2011 2012
2011 2227
2012 2013
2013 2129
2013 2130
2014 2015
2014 2228
2015 2016
2016 2159
2016 2160
2017 2018
2017 2229
2018 2019
2019 2189
2019 2190
2020 2021
2020 2107
2020 2108
2021 2022
2022 2230
2023 2024
2023 2137
2023 2138
2024 2025
2025 2232
2026 2027
2026 2167
2026 2168
2027 2028
2028 2234
2029 2030
2029 2123
2029 2124
2030 2031
2031 2236
2032 2033
2032 2153
2032 2154
2033 2034
2034 2237
2035 2036
2035 2183
2035 2184
2036 2037
2037 2238
2038 2039
2038 2239
2039 2040
2040 2116
2040 2117
2041 2042
2041 2241
2042 2043
2043 2146
2043 2147
2044 2045
2044 2243
2045 2046
2046 2176
2046 2177
2047 2048
2047 2245
2048 2049
2049 2132
2049 2133
2050 2051
2050 2246
2051 2052
2052 2162
2052 2163
2053 2054
2053 2247
2054 2055
2055 2192
2055 2193
2056 2194
2057 2394
2057 2395
2058 2197
2059 2424
2059 2425
2060 2200
2061 2454
2061 2455
2062 2204
2063 2125
2063 2126
2064 2206
2065 2155
2065 2156
2066 2208
2067 2111
2067 2112
2068 2141
2068 2142
2069 2171
2069 2172
2070 2213
2071 2215
2072 2217
2073 2105
2073 2106
2074 2397
2074 2398
2075 2135
2075 2136
2076 2427
2076 2428
2077 2165
2077 2166
2078 2457
2078 2458
2079 2222
2080 2128
2080 2129
2081 2224
2082 2158
2082 2159
2083 2226
2084 2114
2084 2115
2085 2144
2085 2145
2086 2174
2086 2175
2087 2231
2088 2233
2089 2235
2090 2108
2090 2109
2091 2400
2091 2401
2092 2138
2092 2139
2093 2430
2093 2431
2094 2168
2094 2169
2095 2460
2095 2461
2096 2240
2097 2131
2097 2132
2098 2242
2099 2161
2099 2162
2100 2244
2101 2117
2101 2118
2102 2147
2102 2148
2103 2177
2103 2178
2104 2105
2104 2346
2105 2106
2106 2349
2107 2108
2107 2367
2108 2109
2109 2370
2110 2111
2110 2254
2110 2255
2111 2112
2112 2339
2113 2114
2113 2284
2113 2285
2114 2115
2115 2360
2116 2117
2116 2314
2116 2315
2117 2118
2118 2381
2119 2120
2119 2270
2119 2271
2120 2121
2121 2350
2122 2123
2122 2300
2122 2301
2123 2124
2124 2371
2125 2126
2125 2334
2126 2127
2127 2263
2127 2264
2128 2129
2128 2355
2129 2130
2130 2293
2130 2294
2131 2132
2131 2376
2132 2133
2133 2323
2133 2324
2134 2135
2134 2347
2135 2136
2136 2279
2136 2280
2137 2138
2137 2368
2138 2139
2139 2309
2139 2310
2140 2141
2140 2257
2140 2258
2141 2142
2142 2341
2143 2144
2143 2287
2143 2288
2144 2145
2145 2362
2146 2147
2146 2317
2146 2318
2147 2148
2148 2383
2149 2150
2149 2273
2149 2274
2150 2151
2151 2351
2152 2153
2152 2303
2152 2304
2153 2154
2154 2372
2155 2156
2155 2336
2156 2157
2157 2266
2157 2267
2158 2159
2158 2357
2159 2160
2160 2296
2160 2297
2161 2162
2161 2378
2162 2163
2163 2326
2163 2327
2164 2165
2164 2348
2165 2166
2166 2282
2166 2283
2167 2168
2167 2369
2168 2169
2169 2312
2169 2313
2170 2171
2170 2260
2170 2261
2171 2172
2172 2343
2173 2174
2173 2290
2173 2291
2174 2175
2175 2364
2176 2177
2176 2320
2176 2321
2177 2178
2178 2385
2179 2180
2179 2276
2179 2277
2180 2181
2181 2352
2182 2183
2182 2306
2182 2307
2183 2184
2184 2373
2185 2186
2185 2338
2186 2187
2187 2345
2188 2189
2188 2359
2189 2190
2190 2366
2191 2192
2191 2380
2192 2193
2193 2387
2194 2527
2195 2329
2196 2248
2196 2249
2197 2249
2197 2250
2198 2330
2199 2251
2199 2252
2200 2252
2200 2253
2201 2331
2202 2332
2203 2333
2204 2255
2204 2256
2205 2335
2206 2258
2206 2259
2207 2337
2208 2261
2208 2262
2209 2340
2210 2342
2211 2344
2212 2269
2212 2270
2213 2566
2214 2272
2214 2273
2215 2570
2216 2275
2216 2276
2217 2574
2218 2278
2218 2279
2219 2281
2219 2282
2220 2353
2221 2354
2222 2285
2222 2286
2223 2356
2224 2288
2224 2289
2225 2358
2226 2291
2226 2292
2227 2361
2228 2363
2229 2365
2230 2299
2230 2300
2231 2614
2232 2302
2232 2303
2233 2618
2234 2305
2234 2306
2235 2622
2236 2308
2236 2309
2237 2311
2237 2312
2238 2374
2239 2375
2240 2315
2240 2316
2241 2377
2242 2318
2242 2319
2243 2379
2244 2321
2244 2322
2245 2382
2246 2384
2247 2386
2248 2249
2248 2409
2248 2410
2249 2250
2250 2478
2251 2252
2251 2439
2251 2440
2252 2253
2253 2479
2254 2255
2254 2395
2254 2396
2255 2256
2256 2480
2257 2258
2257 2425
2257 2426
2258 2259
2259 2481
2260 2261
2260 2455
2260 2456
2261 2262
2262 2482
2263 2264
2263 2484
2264 2265
2265 2418
2265 2419
2266 2267
2266 2486
2267 2268
2268 2448
2268 2449
2269 2270
2269 2489
2270 2271
2271 2404
2271 2405
2272 2273
2272 2490
2273 2274
2274 2434
2274 2435
2275 2276
2275 2491
2276 2277
2277 2464
2277 2465
2278 2279
2278 2412
2278 2413
2279 2280
2280 2494
2281 2282
2281 2442
2281 2443
2282 2283
2283 2496
2284 2285
2284 2398
2284 2399
2285 2286
2286 2498
2287 2288
2287 2428
2287 2429
2288 2289
2289 2499
2290 2291
2290 2458
2290 2459
2291 2292
2292 2500
2293 2294
2293 2502
2294 2295
2295 2421
2295 2422
2296 2297
2296 2504
2297 2298
2298 2451
2298 2452
2299 2300
2299 2507
2300 2301
2301 2407
2301 2408
2302 2303
2302 2508
2303 2304
2304 2437
2304 2438
2305 2306
2305 2509
2306 2307
2307 2467
2307 2468
2308 2309
2308 2415
2308 2416
2309 2310
2310 2512
2311 2312
2311 2445
2311 2446
2312 2313
2313 2514
2314 2315
2314 2401
2314 2402
2315 2316
2316 2516
2317 2318
2317 2431
2317 2432
2318 2319
2319 2517
2320 2321
2320 2461
2320 2462
2321 2322
2322 2518
2323 2324
2323 2520
2324 2325
2325 2521
2326 2327
2326 2523
2327 2328
2328 2524
2329 2529
2330 2533
2331 2537
2332 2469
2332 2470
2333 2539
2334 2410
2334 2411
2335 2543
2336 2440
2336 2441
2337 2547
2338 2470
2338 2471
2339 2483
2340 2403
2340 2404
2341 2485
2342 2433
2342 2434
2343 2487
2344 2463
2344 2464
2345 2488
2346 2389
2346 2390
2347 2419
2347 2420
2348 2449
2348 2450
2349 2492
2350 2493
2351 2495
2352 2497
2353 2472
2353 2473
2354 2587
2355 2413
2355 2414
2356 2591
2357 2443
2357 2444
2358 2595
2359 2473
2359 2474
2360 2501
2361 2406
2361 2407
2362 2503
2363 2436
2363 2437
2364 2505
2365 2466
2365 2467
2366 2506
2367 2392
2367 2393
2368 2422
2368 2423
2369 2452
2369 2453
2370 2510
2371 2511
2372 2513
2373 2515
2374 2475
2374 2476
2375 2635
2376 2416
2376 2417
2377 2639
2378 2446
2378 2447
2379 2643
2380 2476
2380 2477
2381 2519
2382 2649
2383 2522
2384 2653
2385 2525
2386 2657
2387 2526
2388 2389
2388 2551
2389 2390
2390 2563
2391 2392
2391 2599
2392 2393
2393 2611
2394 2395
2394 2528
2395 2396
2396 2540
2397 2398
2397 2576
2398 2399
2399 2588
2400 2401
2400 2624
2401 2402
2402 2636
2403 2404
2403 2553
2404 2405
2405 2565
2406 2407
2406 2601
2407 2408
2408 2613
2409 2410
2409 2530
2410 2411
2411 2542
2412 2413
2412 2578
2413 2414
2414 2590
2415 2416
2415 2626
2416 2417
2417 2638
2418 2419
2418 2555
2419 2420
2420 2567
2421 2422
2421 2603
2422 2423
2423 2615
2424 2425
2424 2532
2425 2426
2426 2544
2427 2428
2427 2580
2428 2429
2429 2592
2430 2431
2430 2628
2431 2432
2432 2640
2433 2434
2433 2557
2434 2435
2435 2569
2436 2437
2436 2605
2437 2438
2438 2617
2439 2440
2439 2534
2440 2441
2441 2546
2442 2443
2442 2582
2443 2444
2444 2594
2445 2446
2445 2630
2446 2447
2447 2642
2448 2449
2448 2559
2449 2450
2450 2571
2451 2452
2451 2607
2452 2453
2453 2619
2454 2455
2454 2536
2455 2456
2456 2548
2457 2458
2457 2584
2458 2459
2459 2596
2460 2461
2460 2632
2461 2462
2462 2644
2463 2464
2463 2561
2464 2465
2465 2573
2466 2467
2466 2609
2467 2468
2468 2621
2469 2470
2469 2538
2470 2471
2471 2550
2472 2473
2472 2586
2473 2474
2474 2598
2475 2476
2475 2634
2476 2477
2477 2646
2478 2531
2479 2535
2480 2541
2481 2545
2482 2549
2483 2552
2484 2554
2485 2556
2486 2558
2487 2560
2488 2562
2489 2564
2490 2568
2491 2572
2492 2575
2493 2577
2494 2579
2495 2581
2496 2583
2497 2585
2498 2589
2499 2593
2500 2597
2501 2600
2502 2602
2503 2604
2504 2606
2505 2608
2506 2610
2507 2612
2508 2616
2509 2620
2510 2623
2511 2625
2512 2627
2513 2629
2514 2631
2515 2633
2516 2637
2517 2641
2518 2645
2519 2648
2520 2650
2521 2651
2522 2652
2523 2654
2524 2655
2525 2656
2526 2658
